p edge 50 114
e 0 3
e 0 17
e 0 26
e 0 31
e 0 33
e 0 37
e 1 2
e 1 10
e 1 22
e 1 41
e 1 45
e 1 48
e 2 5
e 2 7
e 2 10
e 2 13
e 2 15
e 2 17
e 2 31
e 2 43
e 3 14
e 3 15
e 4 19
e 4 31
e 4 33
e 4 34
e 4 43
e 5 7
e 5 8
e 5 34
e 5 36
e 5 42
e 6 7
e 6 18
e 6 19
e 7 43
e 8 13
e 8 29
e 8 30
e 8 36
e 8 41
e 9 14
e 9 19
e 9 23
e 9 45
e 9 46
e 10 25
e 10 34
e 10 41
e 10 49
e 11 16
e 11 38
e 13 15
e 13 29
e 13 38
e 13 41
e 14 18
e 14 29
e 14 38
e 15 23
e 15 30
e 16 20
e 16 21
e 16 28
e 16 37
e 18 27
e 18 43
e 18 45
e 18 46
e 19 25
e 19 35
e 19 49
e 20 34
e 20 35
e 20 36
e 20 39
e 20 42
e 20 48
e 20 49
e 21 22
e 21 25
e 22 24
e 23 42
e 23 43
e 24 46
e 24 49
e 25 26
e 25 32
e 25 42
e 26 36
e 27 32
e 28 36
e 28 41
e 29 49
e 30 35
e 31 37
e 31 40
e 31 42
e 31 44
e 32 33
e 32 37
e 35 38
e 35 40
e 35 42
e 35 49
e 36 37
e 37 38
e 37 49
e 39 41
e 40 45
e 40 46
e 41 46
e 42 48
e 43 46
